File : Instances/p65
Use 138 s

25930

0 0 1 0 1 0 0 0 1 0 0 1 0 1 0 0 0 1 0 1 0 1 0 0 0 1 0 1 0 0 
27 19 21 27 2 11 21 27 27 17 4 17 13 13 19 11 13 13 27 27 27 21 2 2 13 27 27 19 4 2 19 19 4 21 27 19 8 8 27 21 25 8 19 4 8 19 13 21 19 17 27 21 2 21 8 19 11 8 27 25 4 2 25 8 13 11 2 17 19 25 25 11 19 8 17 13 8 17 8 21 13 17 8 25 4 13 19 2 27 25 17 19 25 25 2 13 11 11 17 17 17 21 25 25 4 2 4 27 27 13 19 4 27 11 11 8 11 25 17 8 8 11 17 19 4 21 2 11 19 17 11 21 25 8 13 8 13 13 17 17 11 27 11 11 25 2 27 21 27 25 27 17 13 17 8 11 2 21 13 13 13 27 13 2 2 27 2 4 13 21 13 8 19 17 4 2 27 13 4 13 2 21 2 19 11 8 11 13 17 21 2 21 19 4 25 11 25 21 13 19 
